%nprocs=1
# freq=noraman 
external="xtb-gaussian -P 4"

conf

0 1
C         0.71958366713478    0.16163356149747    1.38108183303480
C         1.97569789990268   -0.47718850017552    1.11211442345923
C         2.77602773196621   -0.20562037048863    0.01258730722366
C         0.36938070213187    1.35942493476062    0.51459327128490
H         2.35146260269090   -1.16702169775419    1.85326264963126
O         3.85005007703883   -0.81026451349395   -0.23199951586257
C         2.35086291475673    0.93469850293334   -0.91913871880181
C         0.84851320613927    1.21116543862621   -0.93465031630239
C         0.56593565658630    2.52501617360698   -1.67177517029884
H         0.94257386850130    2.47118198352911   -2.69031977595959
H        -0.50372212583272    2.71668750482431   -1.70752859607353
H         1.05202391379021    3.35993484294945   -1.17229321421236
C         0.11936092693629    0.07485631974161   -1.65378422976363
H         0.36442224359022    0.09232786879826   -2.71332640575644
H         0.42577865057921   -0.88421784072053   -1.24911522408425
H        -0.95609776615738    0.17583408336349   -1.53850312188110
H         2.71348036133837    0.70499874449034   -1.92390560414644
H        -0.71075171304198    1.50146666606980    0.55346366865869
H         0.85265593602851    2.22453768298219    0.97170216256611
H         2.89130692424742    1.82392469502033   -0.57722411168559
O         0.49829436060000    0.50140789328085    2.74739361696343
S         1.35244042501106   -0.11896092293902    3.95273732316692
O         2.67043019248654    0.44438999973502    3.99882727727011
O         1.26105500232687   -1.55558224775237    3.94434807714099
C         0.35507140882281    0.54358436353070    5.28389216135579
H        -0.63920182786115    0.12903043702712    5.19420940344548
H         0.35209898961791    1.61839686892844    5.16731027902136
H         0.82097958348232    0.25230373121296    6.21670508271992
C         0.41285794510134   -2.95194493909455    1.37957250406088
N        -0.44781144567412   -1.97780239049742    1.68247059778655
H         1.16331988211108   -2.89355362619817    0.61659094097124
C        -1.22600728904813   -2.38179648745469    2.72671292183494
O        -0.50303704132662   -0.77924965454545    1.10373284317192
C        -0.81979886486342   -3.63864045761388    3.04925031849179
H        -1.99573097349502   -1.75680266182534    3.12860060353608
H        -1.17474654411057   -4.30390405884109    3.80984741504554
N         0.19931340974003   -3.97378944129387    2.21138755291387
C         0.94308040546782   -5.20561902723201    2.25802228548775
H         0.25498294637472   -6.05136144276289    2.27133626287271
H         1.58999370673745   -5.27352233475871    1.38589081691635
H         1.55908005018066   -5.22901868146305    3.15873540477407





